HUN,8,6,685
2,26,4,25,0,30,3,21,1,29,5,25
5,29,0,24,4,29,1,29,3,21,2,30
5,22,0,22,2,25,3,24,4,22,1,27
5,23,2,26,1,24,4,25,0,23,3,28
0,21,3,29,5,29,1,22,2,25,4,24
0,25,1,28,5,22,4,29,3,30,2,22
1,24,0,25,2,27,3,22,5,28,4,30
3,26,4,29,1,24,5,25,0,30,2,24
